WARNING: for repeatability, setting FPU to use double precision
============================[ Problem Statistics ]=============================
|                                                                             |
|  Number of variables:          8399                                         |
|  Number of clauses:          109225                                         |
|  Parse time:                   0.03 s                                       |
|  Eliminated clauses:           0.02 Mb                                      |
|  Simplification time:          0.03 s                                       |
|                                                                             |
============================[ Search Statistics ]==============================
| Conflicts |          ORIGINAL         |          LEARNT          | Progress |
|           |    Vars  Clauses Literals |    Limit  Clauses Lit/Cl |          |
===============================================================================
===============================================================================
restarts              : 1
conflicts             : 7              (126 /sec)
decisions             : 165            (0.00 % random) (2965 /sec)
propagations          : 6385           (114727 /sec)
conflict literals     : 14             (6.67 % deleted)
Memory used           : 28.00 MB
CPU time              : 0.055654 s

UNSATISFIABLE
